Ba1 Ti1 O3
1.0
2.894230 -2.877336 0.000000
2.894230 2.877336 0.000000
0.033689 0.000000 4.080992
Ba Ti O
1 1 3
direct
0.002069 0.002069 0.002069 Ba
0.516440 0.516440 0.516440 Ti
0.973753 0.484619 0.484619 O
0.484619 0.973753 0.484619 O
0.484619 0.484619 0.973753 O
