Na8 Si8
1.0
3.290041 6.064915 0.000000
-3.290041 6.064915 0.000000
0.000000 5.315870 9.703915
Na Si
8 8
direct
0.463152 0.275015 0.452040 Na
0.724985 0.536848 0.047960 Na
0.536848 0.724985 0.547960 Na
0.275015 0.463152 0.952040 Na
0.689886 0.012155 0.141834 Na
0.987845 0.310114 0.358166 Na
0.310114 0.987845 0.858166 Na
0.012155 0.689886 0.641834 Na
0.135982 0.060139 0.142286 Si
0.939861 0.864018 0.357714 Si
0.864018 0.939861 0.857714 Si
0.060139 0.135982 0.642286 Si
0.354151 0.768971 0.312837 Si
0.231029 0.645849 0.187163 Si
0.645849 0.231029 0.687163 Si
0.768971 0.354151 0.812837 Si
