Na4 Cl4
1.0
        5.6916937828         0.0000000000         0.0000000000
        0.0000000000         5.6916937828         0.0000000000
        0.0000000000         0.0000000000         5.6916937828
   Na   Cl
    4    4
Direct
     0.000000000         0.000000000         0.000000000
     0.000000000         0.500000000         0.500000000
     0.500000000         0.000000000         0.500000000
     0.500000000         0.500000000         0.000000000
     0.500000000         0.000000000         0.000000000
     0.500000000         0.500000000         0.500000000
     0.000000000         0.000000000         0.500000000
     0.000000000         0.450000000         0.000000000
