Cd1 F2
1.0
3.368905 -0.000000 1.945038
1.122968 3.176234 1.945038
0.000000 0.000000 3.890076
Cd F
1 2
direct
0.000000 0.000000 0.000000 Cd
0.750000 0.750000 0.750000 F
0.250000 0.250000 0.250000 F
